
Gurobi 10.0.1 (win64) logging started Fri Oct  6 19:20:21 2023

Set parameter LogFile to value "./results//log/URT_13_deadline_heurTrue.log"
Gurobi Optimizer version 10.0.1 build v10.0.1rc0 (win64)

CPU model: AMD Ryzen 7 3700X 8-Core Processor, instruction set [SSE2|AVX|AVX2]
Thread count: 8 physical cores, 16 logical processors, using up to 16 threads

Optimize a model with 674 rows, 451 columns and 2671 nonzeros
Model fingerprint: 0xf76f247c
Model has 1 quadratic constraint
Variable types: 0 continuous, 451 integer (396 binary)
Coefficient statistics:
  Matrix range     [1e+00, 1e+07]
  QMatrix range    [1e+00, 1e+00]
  QLMatrix range   [1e+00, 1e+01]
  Objective range  [1e+00, 1e+00]
  Bounds range     [1e+00, 1e+00]
  RHS range        [1e+00, 3e+07]

Warning: Completing partial solution with 415 unfixed non-continuous variables out of 451
User MIP start did not produce a new incumbent solution

Presolve removed 99 rows and 168 columns
Presolve time: 0.01s
Presolved: 594 rows, 301 columns, 2647 nonzeros
Variable types: 0 continuous, 301 integer (228 binary)

Root relaxation: objective 0.000000e+00, 62 iterations, 0.00 seconds (0.00 work units)
Another try with MIP start

    Nodes    |    Current Node    |     Objective Bounds      |     Work
 Expl Unexpl |  Obj  Depth IntInf | Incumbent    BestBd   Gap | It/Node Time

     0     0    0.00000    0    1          -    0.00000      -     -    0s
     0     0    0.00000    0   13          -    0.00000      -     -    0s
     0     0    0.00000    0    5          -    0.00000      -     -    0s
H    0     0                     137.0000000    0.00000   100%     -    0s
H    0     0                      89.0000000    0.00000   100%     -    0s
     0     0    0.00000    0    2   89.00000    0.00000   100%     -    0s
     0     0    0.00000    0    3   89.00000    0.00000   100%     -    0s
H    0     0                      73.0000000    0.00000   100%     -    0s
H    0     0                      69.0000000    0.00000   100%     -    0s
     0     0    0.00000    0    6   69.00000    0.00000   100%     -    0s
     0     0    0.00000    0   12   69.00000    0.00000   100%     -    0s
H    0     0                      61.0000000    0.00000   100%     -    0s
H    0     0                      60.0000000    0.00000   100%     -    0s
     0     0    0.00000    0    1   60.00000    0.00000   100%     -    0s
     0     0    0.00000    0    1   60.00000    0.00000   100%     -    0s
     0     0    0.00000    0    2   60.00000    0.00000   100%     -    0s
     0     0    0.00000    0    2   60.00000    0.00000   100%     -    0s
H    0     0                      56.0000000    0.00000   100%     -    0s
     0     2    0.00000    0    2   56.00000    0.00000   100%     -    0s
H  174   206                      55.0000000    0.00000   100%  15.2    0s
H  176   206                      41.0000000    0.00000   100%  15.0    0s
H  410   206                      39.0000000    0.00000   100%   8.6    0s
H  639   221                      37.0000000    0.00000   100%   6.1    0s
H  723   221                      31.0000000    0.00000   100%   5.7    0s
H14442   251                      30.0000000    0.00000   100%   0.3    1s
H15562   525                      29.0000000    0.00000   100%   1.4    4s
 18410  1885    0.00000   41   28   29.00000    0.00000   100%   2.9    5s
 31997  6620    9.00000   48   11   29.00000    0.00000   100%   6.5   10s
*34149  7288              55      28.0000000    0.00000   100%   6.9   10s
*54512 13517              55      26.0000000    0.00000   100%   9.7   14s
H55122 13789                      25.0000000    0.00000   100%   9.7   14s
 64755 16684 infeasible   61        25.00000    0.00000   100%  10.0   15s
H69396 17284                      24.0000000    0.00000   100%  10.3   16s
 132406 37461   14.00000   56   11   24.00000    1.00000  95.8%  10.2   20s
 232055 57851    7.00000   36   17   24.00000    3.00000  87.5%   9.9   25s
 329629 77070   19.00000   51    6   24.00000    4.00000  83.3%   9.7   30s
 416391 91419    6.00000   44   26   24.00000    5.00000  79.2%   9.7   35s
 498062 100369    7.00000   53   21   24.00000    6.00000  75.0%   9.7   40s
*561248 103726              58      23.0000000    7.00000  69.6%   9.7   43s
 577040 103780   11.00000   46   15   23.00000    7.00000  69.6%   9.8   45s
 649823 106896   15.00000   51    9   23.00000    8.00000  65.2%  10.0   50s
 719220 105534   19.00000   49    9   23.00000    9.00000  60.9%  10.2   55s
*738348 100201              55      22.0000000    9.00000  59.1%  10.2   56s
 783393 95945 infeasible   50        22.00000   10.00000  54.5%  10.4   60s
 845905 89170 infeasible   53        22.00000   11.00000  50.0%  10.6   65s
 909544 80946   17.00000   46    8   22.00000   12.00000  45.5%  10.7   70s
 963093 71489   19.00000   43    7   22.00000   13.00000  40.9%  10.8   75s
 1015202 59905 infeasible   46        22.00000   14.00000  36.4%  10.8   80s
 1071691 48168   16.00000   45   19   22.00000   16.00000  27.3%  10.9   85s
 1133326 31797 infeasible   48        22.00000   17.00000  22.7%  10.8   90s
 1196364  6996 infeasible   54        22.00000   20.00000  9.09%  10.6   95s

Cutting planes:
  Learned: 1
  Gomory: 1
  Cover: 1
  Implied bound: 6
  Projected implied bound: 1
  MIR: 3
  Flow cover: 15
  Inf proof: 1
  Zero half: 1
  RLT: 2

Explored 1210855 nodes (12805410 simplex iterations) in 96.33 seconds (36.02 work units)
Thread count was 16 (of 16 available processors)

Solution count 10: 22 23 24 ... 37

Optimal solution found (tolerance 1.00e-04)
Best objective 2.200000000000e+01, best bound 2.200000000000e+01, gap 0.0000%
Warning: constraint name "precedence between 0,0 to 0,2 if x_[0,0,0,2,3]=0, i.e. 0,2 before 0,0" has a space
Warning: constraint name "precedence between 0,0 to 0,2 if x_[0,0,0,2,3]=0, i.e. 0,2 before 0,0" has a space
Warning: default constraint names used to write mps file
